
Gurobi 12.0.2 (win64) logging started Fri Jun  6 10:09:04 2025

Set parameter LogFile to value "C:\Ioana\_uni\honours\slp\algorithm\Main_files\results\others\prox_tubules_new\Task_002_Sample002_irr_gurobi.log"
Gurobi Optimizer version 12.0.2 build v12.0.2rc0 (win64 - Windows 11.0 (26100.2))

CPU model: Intel(R) Core(TM) Ultra 5 125H, instruction set [SSE2|AVX|AVX2]
Thread count: 14 physical cores, 18 logical processors, using up to 18 threads

Non-default parameters:
TimeLimit  2200

Optimize a model with 47658 rows, 34811 columns and 147858 nonzeros
Model fingerprint: 0x3185cff9
Variable types: 17417 continuous, 17394 integer (17394 binary)
Coefficient statistics:
  Matrix range     [1e-04, 8e+04]
  Objective range  [1e-04, 9e-01]
  Bounds range     [1e+00, 1e+03]
  RHS range        [1e+00, 1e+00]
Presolve removed 31248 rows and 21843 columns
Presolve time: 0.31s
Presolved: 16410 rows, 12968 columns, 54606 nonzeros
Variable types: 6422 continuous, 6546 integer (6546 binary)

Root relaxation: objective 8.875692e-03, 2996 iterations, 0.23 seconds (0.38 work units)

    Nodes    |    Current Node    |     Objective Bounds      |     Work
 Expl Unexpl |  Obj  Depth IntInf | Incumbent    BestBd   Gap | It/Node Time

     0     0    0.00888    0   15          -    0.00888      -     -    0s
H    0     0                       6.2037575    0.00888   100%     -    0s
     0     0    2.68851    0   26    6.20376    2.68851  56.7%     -    1s
     0     0    3.22980    0   29    6.20376    3.22980  47.9%     -    1s
     0     0    3.30093    0   29    6.20376    3.30093  46.8%     -    1s
     0     0    5.35414    0   28    6.20376    5.35414  13.7%     -    1s
     0     0    5.35414    0   17    6.20376    5.35414  13.7%     -    1s
     0     0    5.35417    0   20    6.20376    5.35417  13.7%     -    1s
     0     0    5.37573    0   26    6.20376    5.37573  13.3%     -    1s
     0     0    5.37573    0    5    6.20376    5.37573  13.3%     -    1s
     0     0          -    0         6.20376    6.20376  0.00%     -    1s

Cutting planes:
  Gomory: 1
  Cover: 3
  MIR: 17
  Flow cover: 21
  Flow path: 5
  Network: 3
  Relax-and-lift: 5

Explored 1 nodes (5498 simplex iterations) in 1.83 seconds (2.00 work units)
Thread count was 18 (of 18 available processors)

Solution count 1: 6.20376 

Optimal solution found (tolerance 1.00e-04)
Best objective 6.203757504635e+00, best bound 6.203757504635e+00, gap 0.0000%

Gurobi 12.0.2 (win64) logging started Fri Jun  6 14:25:24 2025

Set parameter LogFile to value "C:\Ioana\_uni\honours\slp\algorithm\Main_files\results\others\prox_tubules_new\Task_002_Sample002_irr_gurobi.log"
Gurobi Optimizer version 12.0.2 build v12.0.2rc0 (win64 - Windows 11.0 (26100.2))

CPU model: Intel(R) Core(TM) Ultra 5 125H, instruction set [SSE2|AVX|AVX2]
Thread count: 14 physical cores, 18 logical processors, using up to 18 threads

Non-default parameters:
TimeLimit  2200

Optimize a model with 47658 rows, 34811 columns and 147858 nonzeros
Model fingerprint: 0x3185cff9
Variable types: 17417 continuous, 17394 integer (17394 binary)
Coefficient statistics:
  Matrix range     [1e-04, 8e+04]
  Objective range  [1e-04, 9e-01]
  Bounds range     [1e+00, 1e+03]
  RHS range        [1e+00, 1e+00]
Presolve removed 31248 rows and 21843 columns
Presolve time: 0.32s
Presolved: 16410 rows, 12968 columns, 54606 nonzeros
Variable types: 6422 continuous, 6546 integer (6546 binary)

Root relaxation: objective 8.875692e-03, 2996 iterations, 0.21 seconds (0.38 work units)

    Nodes    |    Current Node    |     Objective Bounds      |     Work
 Expl Unexpl |  Obj  Depth IntInf | Incumbent    BestBd   Gap | It/Node Time

     0     0    0.00888    0   15          -    0.00888      -     -    0s
H    0     0                       6.2037575    0.00888   100%     -    0s
     0     0    2.68851    0   26    6.20376    2.68851  56.7%     -    1s
     0     0    3.22980    0   29    6.20376    3.22980  47.9%     -    1s
     0     0    3.30093    0   29    6.20376    3.30093  46.8%     -    1s
     0     0    5.35414    0   28    6.20376    5.35414  13.7%     -    1s
     0     0    5.35414    0   17    6.20376    5.35414  13.7%     -    1s
     0     0    5.35417    0   20    6.20376    5.35417  13.7%     -    1s
     0     0    5.37573    0   26    6.20376    5.37573  13.3%     -    1s
     0     0    5.37573    0    5    6.20376    5.37573  13.3%     -    1s
     0     0          -    0         6.20376    6.20376  0.00%     -    1s

Cutting planes:
  Gomory: 1
  Cover: 3
  MIR: 17
  Flow cover: 21
  Flow path: 5
  Network: 3
  Relax-and-lift: 5

Explored 1 nodes (5498 simplex iterations) in 1.85 seconds (2.00 work units)
Thread count was 18 (of 18 available processors)

Solution count 1: 6.20376 

Optimal solution found (tolerance 1.00e-04)
Best objective 6.203757504635e+00, best bound 6.203757504635e+00, gap 0.0000%
